
Log started (V11.0.0) Sun Apr 13 13:00:48 2008

Tried aggregator 1 time.
Reduced MIP has 150 rows, 5001 columns, and 10050 nonzeros.
Presolve time =    0.05 sec.
Clique table members: 100.
MIP emphasis: balance optimality and feasibility.
MIP search method: dynamic search.
Parallel mode: none, using 1 thread.
Root relaxation solution time =    0.16 sec.

        Nodes                                         Cuts/
   Node  Left     Objective  IInf  Best Integer     Best Node    ItCnt     Gap

*     0+    0                         5676.0000        5.6753      789   99.90%
*     0+    0                           11.0000        5.6753      789   48.41%
      0     0        6.0000    76       11.0000      Fract: 3      821   45.45%
*     0+    0                           10.0000        6.0000      821   40.00%
      0     0        9.0000    20       10.0000      Cuts: 15      841   10.00%
*     0+    0                            9.0000        9.0000      841    0.00%

Clique cuts applied:  7
Flow cuts applied:  5

Solution pool: 4 solutions saved.

MIP - Integer optimal solution:  Objective = 9.0000000000e+000
Solution time =    0.38 sec.  Iterations = 841  Nodes = 0


Incumbent solution
Variable Name           Solution Value
Cmax                          9.000000
X_1_1                         1.000000
X_2_3                         1.000000
X_3_22                        1.000000
X_4_48                        1.000000
X_5_3                         1.000000
X_6_39                        1.000000
X_7_12                        1.000000
X_8_22                        1.000000
X_9_5                         1.000000
X_10_44                       1.000000
X_11_16                       1.000000
X_12_2                        1.000000
X_13_30                       1.000000
X_14_29                       1.000000
X_15_2                        1.000000
X_16_2                        1.000000
X_17_37                       1.000000
X_18_48                       1.000000
X_19_41                       1.000000
X_20_4                        1.000000
X_21_26                       1.000000
X_22_49                       1.000000
X_23_15                       1.000000
X_24_42                       1.000000
X_25_21                       1.000000
X_26_27                       1.000000
X_27_26                       1.000000
X_28_39                       1.000000
X_29_21                       1.000000
X_30_45                       1.000000
X_31_36                       1.000000
X_32_26                       1.000000
X_33_44                       1.000000
X_34_20                       1.000000
X_35_7                        1.000000
X_36_6                        1.000000
X_37_49                       1.000000
X_38_31                       1.000000
X_39_10                       1.000000
X_40_48                       1.000000
X_41_4                        1.000000
X_42_33                       1.000000
X_43_40                       1.000000
X_44_13                       1.000000
X_45_38                       1.000000
X_46_28                       1.000000
X_47_28                       1.000000
X_48_22                       1.000000
X_49_12                       1.000000
X_50_38                       1.000000
X_51_28                       1.000000
X_52_18                       1.000000
X_53_18                       1.000000
X_54_8                        1.000000
X_55_1                        1.000000
X_56_9                        1.000000
X_57_15                       1.000000
X_58_48                       1.000000
X_59_35                       1.000000
X_60_47                       1.000000
X_61_11                       1.000000
X_62_8                        1.000000
X_63_4                        1.000000
X_64_37                       1.000000
X_65_29                       1.000000
X_66_16                       1.000000
X_67_14                       1.000000
X_68_45                       1.000000
X_69_34                       1.000000
X_70_7                        1.000000
X_71_47                       1.000000
X_72_17                       1.000000
X_73_30                       1.000000
X_74_8                        1.000000
X_75_19                       1.000000
X_76_41                       1.000000
X_77_9                        1.000000
X_78_32                       1.000000
X_79_29                       1.000000
X_80_19                       1.000000
X_81_24                       1.000000
X_82_37                       1.000000
X_83_43                       1.000000
X_84_44                       1.000000
X_85_42                       1.000000
X_86_25                       1.000000
X_87_13                       1.000000
X_88_7                        1.000000
X_89_6                        1.000000
X_90_27                       1.000000
X_91_15                       1.000000
X_92_23                       1.000000
X_93_43                       1.000000
X_94_14                       1.000000
X_95_25                       1.000000
X_96_46                       1.000000
X_97_23                       1.000000
X_98_36                       1.000000
X_99_32                       1.000000
X_100_38                      1.000000
All other variables in the range 1-5001 are 0.
